unsat
(forall ((A (_ BitVec 20))
         (B (_ BitVec 20))
         (C (_ BitVec 20))
         (D (_ BitVec 20))
         (E (_ BitVec 20))
         (F (_ BitVec 20))
         (G (_ BitVec 20))
         (H (_ BitVec 20))
         (I (_ BitVec 20))
         (J (_ BitVec 20))
         (K (_ BitVec 20))
         (L (_ BitVec 20))
         (M (_ BitVec 22))
         (N (_ BitVec 14))
         (O (_ BitVec 14))
         (P (_ BitVec 20))
         (Q (_ BitVec 20))
         (R (_ BitVec 20))
         (S (_ BitVec 20))
         (T (_ BitVec 20))
         (U (_ BitVec 20))
         (V (_ BitVec 20))
         (W (_ BitVec 20))
         (X (_ BitVec 38))
         (Y (_ BitVec 38))
         (Z (_ BitVec 38))
         (A1 (_ BitVec 38))
         (B1 (_ BitVec 20))
         (C1 (_ BitVec 20))
         (D1 (_ BitVec 20))
         (E1 (_ BitVec 20))
         (F1 (_ BitVec 18))
         (G1 (_ BitVec 20))
         (H1 (_ BitVec 22))
         (I1 (_ BitVec 20))
         (J1 (_ BitVec 20))
         (K1 (_ BitVec 1))
         (L1 (_ BitVec 1))
         (M1 (_ BitVec 20))
         (N1 (_ BitVec 1))
         (O1 (_ BitVec 22))
         (P1 (_ BitVec 14))
         (Q1 (_ BitVec 22))
         (R1 (_ BitVec 14))
         (S1 (_ BitVec 22))
         (T1 (_ BitVec 20))
         (U1 (_ BitVec 1))
         (V1 (_ BitVec 20))
         (W1 (_ BitVec 20))
         (X1 (_ BitVec 20))
         (Y1 (_ BitVec 20))
         (Z1 (_ BitVec 1))
         (A2 (_ BitVec 1))
         (B2 (_ BitVec 20))
         (C2 (_ BitVec 20))
         (D2 (_ BitVec 38))
         (E2 (_ BitVec 20))
         (F2 (_ BitVec 20))
         (G2 (_ BitVec 1))
         (H2 (_ BitVec 20))
         (I2 (_ BitVec 20))
         (J2 (_ BitVec 20))
         (K2 (_ BitVec 18))
         (L2 (_ BitVec 22))
         (M2 (_ BitVec 20))
         (N2 (_ BitVec 20))
         (O2 (_ BitVec 20))
         (P2 (_ BitVec 20))
         (Q2 (_ BitVec 20))
         (R2 (_ BitVec 20))
         (S2 (_ BitVec 20))
         (T2 (_ BitVec 18))
         (U2 (_ BitVec 20))
         (V2 (_ BitVec 22))
         (W2 (_ BitVec 1))
         (X2 (_ BitVec 14))
         (Y2 (_ BitVec 1))
         (Z2 (_ BitVec 38))
         (A3 (_ BitVec 14))
         (B3 (_ BitVec 20))
         (C3 (_ BitVec 16))
         (D3 (_ BitVec 38))
         (E3 (_ BitVec 30))
         (F3 (_ BitVec 30))
         (G3 (_ BitVec 20))
         (H3 (_ BitVec 1))
         (I3 (_ BitVec 20))
         (J3 (_ BitVec 20))
         (K3 (_ BitVec 20))
         (L3 (_ BitVec 20))
         (M3 (_ BitVec 16))
         (N3 (_ BitVec 38))
         (O3 (_ BitVec 20))
         (P3 (_ BitVec 30))
         (Q3 (_ BitVec 1))
         (R3 (_ BitVec 38))
         (S3 (_ BitVec 30)))
  (! (let ((a!1 (= ((_ extract 27 2)
                     (bvadd (concat #b000000 Q1) ((_ extract 37 10) Y)))
                   #b00000000000000000000000000))
           (a!2 (= ((_ extract 29 4)
                     (bvadd ((_ extract 37 8) Z) (concat #x00 M)))
                   #b00000000000000000000000000))
           (a!3 (= ((_ extract 3 2)
                     (bvadd ((_ extract 37 8) Z) (concat #x00 M)))
                   #b00))
           (a!4 (= ((_ extract 31 6)
                     (bvadd ((_ extract 37 6) D2) (concat #b0000000000 S1)))
                   #b00000000000000000000000000))
           (a!5 (= ((_ extract 3 2)
                     (bvadd ((_ extract 37 6) D2) (concat #b0000000000 S1)))
                   #b00))
           (a!6 (= ((_ extract 5 4)
                     (bvadd ((_ extract 37 6) D2) (concat #b0000000000 S1)))
                   #b00))
           (a!7 (= ((_ extract 33 8)
                     (bvadd (concat #x000 L2) ((_ extract 37 4) A1)))
                   #b00000000000000000000000000))
           (a!8 (bvadd ((_ extract 33 2)
                         (bvadd (concat #x000 L2) ((_ extract 37 4) A1)))
                       (concat #x000 V)))
           (a!9 (= ((_ extract 3 2)
                     (bvadd (concat #x000 L2) ((_ extract 37 4) A1)))
                   #b00))
           (a!10 (= ((_ extract 5 4)
                      (bvadd (concat #x000 L2) ((_ extract 37 4) A1)))
                    #b00))
           (a!11 (= ((_ extract 7 6)
                      (bvadd (concat #x000 L2) ((_ extract 37 4) A1)))
                    #b00))
           (a!12 ((_ extract 22 10)
                   (bvadd (concat #b000 ((_ extract 21 2) V2)) (concat #b0 H1))))
           (a!13 ((_ extract 22 4)
                   (bvadd (concat #b000 ((_ extract 21 2) V2)) (concat #b0 H1))))
           (a!15 (bvnot (bvor (bvnot ((_ extract 18 0) V))
                              (bvnot ((_ extract 19 1) V)))))
           (a!18 ((_ extract 22 2)
                   (bvadd (concat #b000 ((_ extract 21 2) V2)) (concat #b0 H1))))
           (a!19 (bvnot (bvor (bvnot ((_ extract 18 0) W))
                              (bvnot ((_ extract 19 1) W)))))
           (a!26 ((_ extract 5 4)
                   (bvadd (concat #b000 ((_ extract 21 2) V2)) (concat #b0 H1))))
           (a!27 ((_ extract 7 6)
                   (bvadd (concat #b000 ((_ extract 21 2) V2)) (concat #b0 H1))))
           (a!28 ((_ extract 9 8)
                   (bvadd (concat #b000 ((_ extract 21 2) V2)) (concat #b0 H1))))
           (a!29 (or ((_ bit2bool 1) U2)
                     ((_ bit2bool 2) U2)
                     ((_ bit2bool 0) H1)
                     (= ((_ extract 3 2) V2) (bvmul #b11 ((_ extract 1 0) H1)))))
           (a!30 ((_ extract 3 2)
                   (bvadd (concat #b000 ((_ extract 21 2) V2)) (concat #b0 H1))))
           (a!31 (or ((_ bit2bool 1) E1)
                     ((_ bit2bool 2) E1)
                     (= ((_ extract 5 4) A1) (bvmul #b11 ((_ extract 1 0) L2)))))
           (a!32 (or (not (= U2 #x00000))
                     (= ((_ extract 3 2) V2) (bvmul #b11 ((_ extract 1 0) H1))))))
     (let ((a!14 (= ((_ extract 31 6)
                      (bvadd (concat #b00000000000 W #b0)
                             (concat #b0000000000000 a!13)))
                    #b00000000000000000000000000))
           (a!16 (bvadd (concat #b0 a!15)
                        (concat #b0
                                ((_ extract 19 19) V)
                                (bvxor ((_ extract 18 1) V)
                                       ((_ extract 19 2) V)))))
           (a!20 (bvadd (concat #b0 a!19)
                        (concat #b0
                                ((_ extract 19 19) W)
                                (bvxor ((_ extract 18 1) W)
                                       ((_ extract 19 2) W))))))
     (let ((a!17 (bvadd ((_ extract 33 2)
                          (bvadd (concat #x000 L2) ((_ extract 37 4) A1)))
                        (concat #b0000000000
                                a!16
                                (bvxor ((_ extract 0 0) V) ((_ extract 1 1) V))
                                ((_ extract 0 0) V))))
           (a!21 (concat #b0000000000
                         a!20
                         (bvxor ((_ extract 0 0) W) ((_ extract 1 1) W))
                         ((_ extract 0 0) W)))
           (a!24 (bvadd (concat #b0000000000000 a!18)
                        (concat #x000
                                a!20
                                (bvxor ((_ extract 0 0) W) ((_ extract 1 1) W))
                                ((_ extract 0 0) W)))))
     (let ((a!22 (bvadd ((_ extract 33 2)
                          (bvadd (concat #b00000000000000 W)
                                 (concat #b0000000000000 a!18)))
                        a!21))
           (a!23 (bvadd ((_ extract 33 2)
                          (bvadd (concat #b0000000000000 a!18)
                                 (concat #b0000000000000 W #b0)))
                        a!21))
           (a!25 (= ((_ extract 31 6) (bvadd ((_ extract 33 2) a!24) a!21))
                    #b00000000000000000000000000)))
     (let ((a!33 (and (or (= N3 #b00000000000000000000000000000000000000)
                          (not (= E2 #x00000)))
                      (not ((_ bit2bool 3) R1))
                      (not ((_ bit2bool 2) R1))
                      (not ((_ bit2bool 1) R1))
                      (not ((_ bit2bool 0) R1))
                      (not ((_ bit2bool 9) O))
                      (not ((_ bit2bool 8) O))
                      (not ((_ bit2bool 7) O))
                      (not ((_ bit2bool 6) O))
                      (not ((_ bit2bool 5) O))
                      (not ((_ bit2bool 4) O))
                      (not ((_ bit2bool 3) O))
                      (not ((_ bit2bool 2) O))
                      (not ((_ bit2bool 1) O))
                      (not ((_ bit2bool 0) O))
                      (not (= ((_ extract 17 17) K2) #b1))
                      (not ((_ bit2bool 1) P1))
                      (not ((_ bit2bool 0) P1))
                      (or ((_ bit2bool 1) P)
                          (not (= J #x00000))
                          (not ((_ bit2bool 1) B2)))
                      (or ((_ bit2bool 1) P)
                          ((_ bit2bool 0) P)
                          ((_ bit2bool 2) P)
                          ((_ bit2bool 2) B2)
                          (not ((_ bit2bool 2) J)))
                      (= ((_ extract 37 12) X)
                         (bvmul #b11111111111111111111111111 (concat #x0 O1)))
                      (or ((_ bit2bool 0) J)
                          ((_ bit2bool 0) P)
                          (not ((_ bit2bool 0) B2)))
                      (not ((_ bit2bool 2) A3))
                      (not ((_ bit2bool 3) A3))
                      (not (= ((_ extract 17 17) T2) #b1))
                      (not ((_ bit2bool 0) A3))
                      (or (not ((_ bit2bool 0) L1)) (not (= N1 #b0)))
                      a!1
                      (= ((_ extract 11 10) Y)
                         (bvmul #b11 ((_ extract 1 0) Q1)))
                      (not ((_ bit2bool 1) A3))
                      (not ((_ bit2bool 3) N))
                      (or ((_ bit2bool 0) K2)
                          ((_ bit2bool 0) F1)
                          (not ((_ bit2bool 0) T2)))
                      (not ((_ bit2bool 2) N))
                      (not (= ((_ extract 17 17) F1) #b1))
                      (or ((_ bit2bool 0) K2)
                          ((_ bit2bool 1) F1)
                          ((_ bit2bool 1) K2)
                          (not (= T2 #b000000000000000110)))
                      a!2
                      (not ((_ bit2bool 5) A3))
                      (not ((_ bit2bool 4) A3))
                      (not ((_ bit2bool 4) N))
                      (or (not (= J #x00000))
                          ((_ bit2bool 2) P)
                          (not ((_ bit2bool 2) B2)))
                      (not ((_ bit2bool 6) N))
                      (or ((_ bit2bool 0) F1)
                          ((_ bit2bool 0) T2)
                          (not ((_ bit2bool 0) K2)))
                      (or ((_ bit2bool 0) K2)
                          ((_ bit2bool 0) T2)
                          (not ((_ bit2bool 0) F1)))
                      (or ((_ bit2bool 1) J)
                          ((_ bit2bool 0) P)
                          ((_ bit2bool 0) B2)
                          ((_ bit2bool 1) B2)
                          (not ((_ bit2bool 1) P)))
                      (not ((_ bit2bool 7) N))
                      (or ((_ bit2bool 0) P)
                          ((_ bit2bool 0) B2)
                          (not ((_ bit2bool 0) J)))
                      a!3
                      (= ((_ extract 9 8) Z) (bvmul #b11 ((_ extract 1 0) M)))
                      a!4
                      (not ((_ bit2bool 5) N))
                      a!5
                      (= ((_ extract 7 6) D2) (bvmul #b11 ((_ extract 1 0) S1)))
                      a!6
                      a!7
                      (= ((_ extract 31 6) a!8) #b00000000000000000000000000)
                      (not ((_ bit2bool 0) N))
                      (not ((_ bit2bool 1) N))
                      a!9
                      a!10
                      a!11
                      (= a!12 #b0000000000000)
                      a!14
                      (= ((_ extract 31 6) a!17) #b00000000000000000000000000)
                      (= ((_ extract 31 6) a!22) #b00000000000000000000000000)
                      (= ((_ extract 31 6) a!23) #b00000000000000000000000000)
                      a!25
                      (= a!26 #b00)
                      (= a!27 #b00)
                      (= a!28 #b00)
                      (or ((_ bit2bool 0) P)
                          ((_ bit2bool 2) P)
                          ((_ bit2bool 1) B2)
                          (not ((_ bit2bool 1) P))
                          (not ((_ bit2bool 2) B2))
                          (= ((_ extract 1 1) J) #b1))
                      (or ((_ bit2bool 0) U2)
                          ((_ bit2bool 1) U2)
                          (= ((_ extract 1 0) V2) #b00))
                      a!29
                      (or ((_ bit2bool 0) W) (not ((_ bit2bool 0) H1)))
                      (or ((_ bit2bool 2) U2) (= ((_ extract 5 4) V2) #b00))
                      (or ((_ bit2bool 1) U2) ((_ bit2bool 2) U2) (= a!30 #b00))
                      (or ((_ bit2bool 1) E1)
                          ((_ bit2bool 2) E1)
                          ((_ bit2bool 0) E1)
                          ((_ bit2bool 0) V)
                          (= ((_ extract 3 0) A1) #x0))
                      a!31
                      (or ((_ bit2bool 0) U)
                          ((_ bit2bool 0) C1)
                          ((_ bit2bool 1) C1)
                          ((_ bit2bool 2) C1)
                          (= ((_ extract 7 0) Z) #x00))
                      (or ((_ bit2bool 0) H2)
                          ((_ bit2bool 1) H2)
                          ((_ bit2bool 2) H2)
                          (= ((_ extract 0 0) O3) #b1)
                          (= ((_ extract 5 0) D2) #b000000))
                      (or ((_ bit2bool 1) T1)
                          ((_ bit2bool 2) T1)
                          ((_ bit2bool 0) T1)
                          (= ((_ extract 0 0) T) #b1)
                          (= ((_ extract 9 0) Y) #b0000000000))
                      a!32
                      (or (not (= E1 #x00000)) (= ((_ extract 3 0) A1) #x0))
                      (or (not (= H2 #x00000))
                          (= ((_ extract 5 0) D2) #b000000))
                      (or (not (= C1 #x00000)) (= ((_ extract 7 0) Z) #x00))
                      (or (not (= T1 #x00000))
                          (= ((_ extract 9 0) Y) #b0000000000))
                      (or (not (= B1 #x00000)) (= ((_ extract 11 0) X) #x000)))))
       (= (INV!slice!1 A
                       B
                       C
                       D
                       E
                       F
                       G
                       H
                       I
                       J
                       K
                       L
                       M
                       N
                       O
                       P
                       Q
                       R
                       S
                       T
                       U
                       V
                       W
                       X
                       Y
                       Z
                       A1
                       B1
                       C1
                       D1
                       E1
                       F1
                       G1
                       H1
                       I1
                       J1
                       K1
                       L1
                       M1
                       N1
                       O1
                       P1
                       Q1
                       R1
                       S1
                       T1
                       U1
                       V1
                       W1
                       X1
                       Y1
                       Z1
                       A2
                       B2
                       C2
                       D2
                       E2
                       F2
                       G2
                       H2
                       I2
                       J2
                       K2
                       L2
                       M2
                       N2
                       O2
                       P2
                       Q2
                       R2
                       S2
                       T2
                       U2
                       V2
                       W2
                       X2
                       Y2
                       Z2
                       A3
                       B3
                       C3
                       D3
                       E3
                       F3
                       G3
                       H3
                       I3
                       J3
                       K3
                       L3
                       M3
                       N3
                       O3
                       P3
                       Q3
                       R3
                       S3)
          a!33))))))
     :weight 0))
